Version identifier: 22.1.1.0 | 2022-11-28 | 9160aff4d
CPXPARAM_Threads                                 8
CPXPARAM_Emphasis_MIP                            5
CPXPARAM_TimeLimit                               3600
CPXPARAM_MIP_Tolerances_MIPGap                   0.029999999999999999
Tried aggregator 2 times.
MIP Presolve eliminated 358 rows and 197 columns.
Aggregator did 84 substitutions.
Reduced MIP has 1045 rows, 844 columns, and 3960 nonzeros.
Reduced MIP has 728 binaries, 116 generals, 0 SOSs, and 0 indicators.
Presolve time = 0.00 sec. (3.78 ticks)
Found incumbent of value 478.000000 after 0.02 sec. (16.22 ticks)
Probing fixed 34 vars, tightened 31 bounds.
Probing time = 0.00 sec. (2.95 ticks)
Tried aggregator 1 time.
Detecting symmetries...
MIP Presolve eliminated 52 rows and 36 columns.
Reduced MIP has 993 rows, 808 columns, and 3761 nonzeros.
Reduced MIP has 692 binaries, 116 generals, 0 SOSs, and 0 indicators.
Presolve time = 0.00 sec. (3.58 ticks)
Probing time = 0.00 sec. (2.25 ticks)
Clique table members: 1296.
MIP emphasis: heuristic.
MIP search method: dynamic search.
Parallel mode: deterministic, using up to 8 threads.
Root relaxation solution time = 0.01 sec. (6.79 ticks)

        Nodes                                         Cuts/
   Node  Left     Objective  IInf  Best Integer    Best Bound    ItCnt     Gap

*     0+    0                          478.0000        0.0000           100.00%
*     0     0      integral     0      314.0000      314.0000      376    0.00%
Elapsed time = 0.04 sec. (33.99 ticks, tree = 0.00 MB, solutions = 2)
Version identifier: 22.1.1.0 | 2022-11-28 | 9160aff4d
CPXPARAM_Threads                                 8
CPXPARAM_Emphasis_MIP                            5
CPXPARAM_TimeLimit                               3600
CPXPARAM_MIP_Tolerances_MIPGap                   0.029999999999999999
Tried aggregator 3 times.
MIP Presolve eliminated 445 rows and 261 columns.
Aggregator did 92 substitutions.
Reduced MIP has 1582 rows, 1286 columns, and 6092 nonzeros.
Reduced MIP has 1113 binaries, 173 generals, 0 SOSs, and 0 indicators.
Presolve time = 0.01 sec. (6.03 ticks)
Found incumbent of value 562.000000 after 0.03 sec. (22.62 ticks)
Probing fixed 89 vars, tightened 85 bounds.
Probing time = 0.01 sec. (5.86 ticks)
Tried aggregator 1 time.
Detecting symmetries...
MIP Presolve eliminated 118 rows and 94 columns.
Reduced MIP has 1464 rows, 1192 columns, and 5605 nonzeros.
Reduced MIP has 1019 binaries, 173 generals, 0 SOSs, and 0 indicators.
Presolve time = 0.01 sec. (5.25 ticks)
Probing fixed 5 vars, tightened 6 bounds.
Probing time = 0.01 sec. (5.01 ticks)
Clique table members: 2741.
MIP emphasis: heuristic.
MIP search method: dynamic search.
Parallel mode: deterministic, using up to 8 threads.
Root relaxation solution time = 0.03 sec. (15.76 ticks)

        Nodes                                         Cuts/
   Node  Left     Objective  IInf  Best Integer    Best Bound    ItCnt     Gap

*     0+    0                          562.0000        0.0000           100.00%
      0     0      323.5000    69      562.0000      323.5000      654   42.44%
*     0+    0                          492.0000      323.5000            34.25%
*     0+    0                          398.0000      323.5000            18.72%
*     0+    0                          324.0000      323.5000             0.15%
      0     0        cutoff            324.0000      323.5000      654    0.15%
Elapsed time = 0.25 sec. (108.72 ticks, tree = 0.01 MB, solutions = 4)
Version identifier: 22.1.1.0 | 2022-11-28 | 9160aff4d
CPXPARAM_Threads                                 8
CPXPARAM_Emphasis_MIP                            5
CPXPARAM_TimeLimit                               3600
CPXPARAM_MIP_Tolerances_MIPGap                   0.029999999999999999
Tried aggregator 2 times.
MIP Presolve eliminated 528 rows and 331 columns.
Aggregator did 96 substitutions.
Reduced MIP has 2151 rows, 1759 columns, and 8349 nonzeros.
Reduced MIP has 1525 binaries, 234 generals, 0 SOSs, and 0 indicators.
Presolve time = 0.01 sec. (7.32 ticks)
Probing fixed 120 vars, tightened 116 bounds.
Probing time = 0.01 sec. (9.36 ticks)
Tried aggregator 1 time.
Detecting symmetries...
MIP Presolve eliminated 155 rows and 126 columns.
Reduced MIP has 1996 rows, 1633 columns, and 7700 nonzeros.
Reduced MIP has 1399 binaries, 234 generals, 0 SOSs, and 0 indicators.
Presolve time = 0.01 sec. (7.12 ticks)
Probing time = 0.00 sec. (2.93 ticks)
Clique table members: 4915.
MIP emphasis: heuristic.
MIP search method: dynamic search.
Parallel mode: deterministic, using up to 8 threads.
Root relaxation solution time = 0.04 sec. (20.82 ticks)

        Nodes                                         Cuts/
   Node  Left     Objective  IInf  Best Integer    Best Bound    ItCnt     Gap

      0     0      381.8000   100                    381.8000      809         
*     0+   -1                          729.0000      381.8000            47.63%
      0     0  -1.00000e+75     0      729.0000      381.8000      809   47.63%
*     0+    0                          430.0000      381.8000            11.21%
*     0+    0                          403.0000      381.8000             5.26%
Version identifier: 22.1.1.0 | 2022-11-28 | 9160aff4d
CPXPARAM_Threads                                 8
CPXPARAM_Emphasis_MIP                            5
CPXPARAM_TimeLimit                               3600
CPXPARAM_MIP_Tolerances_MIPGap                   0.029999999999999999
Tried aggregator 2 times.
MIP Presolve eliminated 611 rows and 398 columns.
Aggregator did 104 substitutions.
Reduced MIP has 2697 rows, 2213 columns, and 10456 nonzeros.
Reduced MIP has 1920 binaries, 293 generals, 0 SOSs, and 0 indicators.
Presolve time = 0.02 sec. (9.07 ticks)
Probing fixed 156 vars, tightened 118 bounds.
Probing time = 0.02 sec. (4.05 ticks)
Tried aggregator 1 time.
Detecting symmetries...
MIP Presolve eliminated 200 rows and 163 columns.
Reduced MIP has 2497 rows, 2050 columns, and 9630 nonzeros.
Reduced MIP has 1757 binaries, 293 generals, 0 SOSs, and 0 indicators.
Presolve time = 0.01 sec. (8.84 ticks)
Probing time = 0.00 sec. (3.25 ticks)
Clique table members: 6731.
MIP emphasis: heuristic.
MIP search method: dynamic search.
Parallel mode: deterministic, using up to 8 threads.
Root relaxation solution time = 0.08 sec. (57.33 ticks)

        Nodes                                         Cuts/
   Node  Left     Objective  IInf  Best Integer    Best Bound    ItCnt     Gap

*     0+    0                         1323.0000        0.0000           100.00%
      0     0      422.3333   115     1323.0000      422.3333     1379   68.08%
*     0+   -1                          726.0000      422.3333            41.83%
      0     0  -1.00000e+75     0      726.0000      422.3333     1379   41.83%
*     0+    0                          474.0000      422.3333            10.90%
*     0+    0                          439.0000      422.3333             3.80%
*     0+    0                          427.0000      422.3333             1.09%
      0     0        cutoff            427.0000      427.0000     1534    0.00%
Elapsed time = 0.39 sec. (349.03 ticks, tree = 0.01 MB, solutions = 5)

Zero-half cuts applied:  7
Gomory fractional cuts applied:  5

Root node processing (before b&c):
  Real time             =    0.39 sec. (349.23 ticks)
Parallel b&c, 8 threads:
  Real time             =    0.00 sec. (0.00 ticks)
  Sync time (average)   =    0.00 sec.
  Wait time (average)   =    0.00 sec.
                          ------------
Total (root+branch&cut) =    0.39 sec. (349.23 ticks)

Zero-half cuts applied:  7
Lift and project cuts applied:  1
Gomory fractional cuts applied:  1

Root node processing (before b&c):
  Real time             =    0.31 sec. (214.56 ticks)
Parallel b&c, 8 threads:
  Real time             =    0.00 sec. (0.00 ticks)
  Sync time (average)   =    0.00 sec.
  Wait time (average)   =    0.00 sec.
                          ------------
Total (root+branch&cut) =    0.31 sec. (214.56 ticks)

Root node processing (before b&c):
  Real time             =    0.25 sec. (108.80 ticks)
Parallel b&c, 8 threads:
  Real time             =    0.00 sec. (0.00 ticks)
  Sync time (average)   =    0.00 sec.
  Wait time (average)   =    0.00 sec.
                          ------------
Total (root+branch&cut) =    0.25 sec. (108.80 ticks)

Root node processing (before b&c):
  Real time             =    0.04 sec. (34.03 ticks)
Parallel b&c, 8 threads:
  Real time             =    0.00 sec. (0.00 ticks)
  Sync time (average)   =    0.00 sec.
  Wait time (average)   =    0.00 sec.
                          ------------
Total (root+branch&cut) =    0.04 sec. (34.03 ticks)
Version identifier: 22.1.1.0 | 2022-11-28 | 9160aff4d
CPXPARAM_Threads                                 8
CPXPARAM_Emphasis_MIP                            5
CPXPARAM_TimeLimit                               3600
CPXPARAM_MIP_Tolerances_MIPGap                   0.029999999999999999
Tried aggregator 2 times.
MIP Presolve eliminated 358 rows and 197 columns.
Aggregator did 84 substitutions.
Reduced MIP has 1045 rows, 844 columns, and 3960 nonzeros.
Reduced MIP has 728 binaries, 116 generals, 0 SOSs, and 0 indicators.
Presolve time = 0.00 sec. (3.78 ticks)
Found incumbent of value 478.000000 after 0.02 sec. (16.22 ticks)
Probing fixed 34 vars, tightened 31 bounds.
Probing time = 0.00 sec. (2.95 ticks)
Tried aggregator 1 time.
Detecting symmetries...
MIP Presolve eliminated 52 rows and 36 columns.
Reduced MIP has 993 rows, 808 columns, and 3761 nonzeros.
Reduced MIP has 692 binaries, 116 generals, 0 SOSs, and 0 indicators.
Presolve time = 0.00 sec. (3.58 ticks)
Probing time = 0.00 sec. (2.25 ticks)
Clique table members: 1296.
MIP emphasis: heuristic.
MIP search method: dynamic search.
Parallel mode: deterministic, using up to 8 threads.
Root relaxation solution time = 0.01 sec. (6.79 ticks)

        Nodes                                         Cuts/
   Node  Left     Objective  IInf  Best Integer    Best Bound    ItCnt     Gap

*     0+    0                          478.0000        0.0000           100.00%
*     0     0      integral     0      314.0000      314.0000      376    0.00%
Elapsed time = 0.04 sec. (33.99 ticks, tree = 0.00 MB, solutions = 2)
Version identifier: 22.1.1.0 | 2022-11-28 | 9160aff4d
CPXPARAM_Threads                                 8
CPXPARAM_Emphasis_MIP                            5
CPXPARAM_TimeLimit                               3600
CPXPARAM_MIP_Tolerances_MIPGap                   0.029999999999999999
Tried aggregator 3 times.
MIP Presolve eliminated 445 rows and 261 columns.
Aggregator did 92 substitutions.
Reduced MIP has 1582 rows, 1286 columns, and 6092 nonzeros.
Reduced MIP has 1113 binaries, 173 generals, 0 SOSs, and 0 indicators.
Presolve time = 0.01 sec. (6.03 ticks)
Found incumbent of value 562.000000 after 0.03 sec. (22.62 ticks)
Probing fixed 89 vars, tightened 85 bounds.
Probing time = 0.01 sec. (5.86 ticks)
Tried aggregator 1 time.
Detecting symmetries...
MIP Presolve eliminated 118 rows and 94 columns.
Reduced MIP has 1464 rows, 1192 columns, and 5605 nonzeros.
Reduced MIP has 1019 binaries, 173 generals, 0 SOSs, and 0 indicators.
Presolve time = 0.01 sec. (5.25 ticks)
Probing fixed 5 vars, tightened 6 bounds.
Probing time = 0.01 sec. (5.01 ticks)
Clique table members: 2741.
MIP emphasis: heuristic.
MIP search method: dynamic search.
Parallel mode: deterministic, using up to 8 threads.
Root relaxation solution time = 0.03 sec. (15.76 ticks)

        Nodes                                         Cuts/
   Node  Left     Objective  IInf  Best Integer    Best Bound    ItCnt     Gap

*     0+    0                          562.0000        0.0000           100.00%
      0     0      323.5000    69      562.0000      323.5000      654   42.44%
*     0+    0                          492.0000      323.5000            34.25%
*     0+    0                          398.0000      323.5000            18.72%
*     0+    0                          324.0000      323.5000             0.15%
      0     0        cutoff            324.0000      323.5000      654    0.15%
Elapsed time = 0.14 sec. (108.72 ticks, tree = 0.01 MB, solutions = 4)
Version identifier: 22.1.1.0 | 2022-11-28 | 9160aff4d
CPXPARAM_Threads                                 8
CPXPARAM_Emphasis_MIP                            5
CPXPARAM_TimeLimit                               3600
CPXPARAM_MIP_Tolerances_MIPGap                   0.029999999999999999
Tried aggregator 2 times.
MIP Presolve eliminated 528 rows and 331 columns.
Aggregator did 96 substitutions.
Reduced MIP has 2151 rows, 1759 columns, and 8349 nonzeros.
Reduced MIP has 1525 binaries, 234 generals, 0 SOSs, and 0 indicators.
Presolve time = 0.01 sec. (7.32 ticks)
Probing fixed 120 vars, tightened 116 bounds.
Probing time = 0.01 sec. (9.36 ticks)
Tried aggregator 1 time.
Detecting symmetries...
MIP Presolve eliminated 155 rows and 126 columns.
Reduced MIP has 1996 rows, 1633 columns, and 7700 nonzeros.
Reduced MIP has 1399 binaries, 234 generals, 0 SOSs, and 0 indicators.
Presolve time = 0.01 sec. (7.12 ticks)
Probing time = 0.00 sec. (2.93 ticks)
Clique table members: 4915.
MIP emphasis: heuristic.
MIP search method: dynamic search.
Parallel mode: deterministic, using up to 8 threads.
Root relaxation solution time = 0.05 sec. (20.82 ticks)

        Nodes                                         Cuts/
   Node  Left     Objective  IInf  Best Integer    Best Bound    ItCnt     Gap

      0     0      381.8000   100                    381.8000      809         
*     0+   -1                          729.0000      381.8000            47.63%
      0     0  -1.00000e+75     0      729.0000      381.8000      809   47.63%
*     0+    0                          430.0000      381.8000            11.21%
*     0+    0                          403.0000      381.8000             5.26%
Version identifier: 22.1.1.0 | 2022-11-28 | 9160aff4d
CPXPARAM_Threads                                 8
CPXPARAM_Emphasis_MIP                            5
CPXPARAM_TimeLimit                               3600
CPXPARAM_MIP_Tolerances_MIPGap                   0.029999999999999999
Tried aggregator 2 times.
MIP Presolve eliminated 611 rows and 398 columns.
Aggregator did 104 substitutions.
Reduced MIP has 2697 rows, 2213 columns, and 10456 nonzeros.
Reduced MIP has 1920 binaries, 293 generals, 0 SOSs, and 0 indicators.
Presolve time = 0.02 sec. (9.07 ticks)
Probing fixed 156 vars, tightened 118 bounds.
Probing time = 0.02 sec. (4.05 ticks)
Tried aggregator 1 time.
Detecting symmetries...
MIP Presolve eliminated 200 rows and 163 columns.
Reduced MIP has 2497 rows, 2050 columns, and 9630 nonzeros.
Reduced MIP has 1757 binaries, 293 generals, 0 SOSs, and 0 indicators.
Presolve time = 0.01 sec. (8.84 ticks)
Probing time = 0.00 sec. (3.25 ticks)
Clique table members: 6731.
MIP emphasis: heuristic.
MIP search method: dynamic search.
Parallel mode: deterministic, using up to 8 threads.
Root relaxation solution time = 0.06 sec. (57.33 ticks)

        Nodes                                         Cuts/
   Node  Left     Objective  IInf  Best Integer    Best Bound    ItCnt     Gap

*     0+    0                         1323.0000        0.0000           100.00%
      0     0      422.3333   115     1323.0000      422.3333     1379   68.08%
*     0+   -1                          726.0000      422.3333            41.83%
      0     0  -1.00000e+75     0      726.0000      422.3333     1379   41.83%
*     0+    0                          474.0000      422.3333            10.90%
*     0+    0                          439.0000      422.3333             3.80%
*     0+    0                          427.0000      422.3333             1.09%
      0     0        cutoff            427.0000      427.0000     1534    0.00%
Elapsed time = 0.39 sec. (349.03 ticks, tree = 0.01 MB, solutions = 5)
Version identifier: 22.1.1.0 | 2022-11-28 | 9160aff4d
CPXPARAM_Threads                                 8
CPXPARAM_Emphasis_MIP                            5
CPXPARAM_TimeLimit                               3600
CPXPARAM_MIP_Tolerances_MIPGap                   0.029999999999999999
Tried aggregator 2 times.
MIP Presolve eliminated 671 rows and 447 columns.
Aggregator did 105 substitutions.
Reduced MIP has 3050 rows, 2508 columns, and 11832 nonzeros.
Reduced MIP has 2177 binaries, 331 generals, 0 SOSs, and 0 indicators.
Presolve time = 0.02 sec. (10.17 ticks)
Probing fixed 171 vars, tightened 126 bounds.
Probing time = 0.02 sec. (4.73 ticks)
Tried aggregator 2 times.
Detecting symmetries...
MIP Presolve eliminated 215 rows and 177 columns.
Aggregator did 1 substitutions.
Reduced MIP has 2834 rows, 2330 columns, and 10935 nonzeros.
Reduced MIP has 1999 binaries, 331 generals, 0 SOSs, and 0 indicators.
Presolve time = 0.01 sec. (10.57 ticks)
Probing time = 0.02 sec. (3.55 ticks)
Clique table members: 7616.
MIP emphasis: heuristic.
MIP search method: dynamic search.
Parallel mode: deterministic, using up to 8 threads.
Root relaxation solution time = 0.06 sec. (50.28 ticks)

        Nodes                                         Cuts/
   Node  Left     Objective  IInf  Best Integer    Best Bound    ItCnt     Gap

      0     0      422.3333    99                    422.3333     1435         
*     0+    0                          450.0000      422.3333             6.15%
*     0+    0                          439.0000      422.3333             3.80%
*     0+    0                          427.0000      422.3333             1.09%
      0     0        cutoff            427.0000      427.0000     1613    0.00%
Elapsed time = 0.39 sec. (325.99 ticks, tree = 0.01 MB, solutions = 3)
Version identifier: 22.1.1.0 | 2022-11-28 | 9160aff4d
CPXPARAM_Threads                                 8
CPXPARAM_Emphasis_MIP                            5
CPXPARAM_TimeLimit                               3600
CPXPARAM_MIP_Tolerances_MIPGap                   0.029999999999999999
Tried aggregator 3 times.
MIP Presolve eliminated 702 rows and 470 columns.
Aggregator did 113 substitutions.
Reduced MIP has 3226 rows, 2643 columns, and 12496 nonzeros.
Reduced MIP has 2294 binaries, 349 generals, 0 SOSs, and 0 indicators.
Presolve time = 0.02 sec. (11.70 ticks)
Probing fixed 178 vars, tightened 168 bounds.
Probing time = 0.02 sec. (5.60 ticks)
Tried aggregator 2 times.
Detecting symmetries...
MIP Presolve eliminated 224 rows and 184 columns.
Aggregator did 1 substitutions.
Reduced MIP has 3001 rows, 2458 columns, and 11554 nonzeros.
Reduced MIP has 2109 binaries, 349 generals, 0 SOSs, and 0 indicators.
Presolve time = 0.01 sec. (11.17 ticks)
Probing time = 0.02 sec. (3.20 ticks)
Clique table members: 8051.
MIP emphasis: heuristic.
MIP search method: dynamic search.
Parallel mode: deterministic, using up to 8 threads.
Root relaxation solution time = 0.06 sec. (50.41 ticks)

        Nodes                                         Cuts/
   Node  Left     Objective  IInf  Best Integer    Best Bound    ItCnt     Gap

      0     0      422.3333   111                    422.3333     1275         
*     0+   -1                          677.0000      422.3333            37.62%
      0     0  -1.00000e+75     0      677.0000      422.3333     1275   37.62%
*     0+    0                          427.0000      422.3333             1.09%
      0     0        cutoff            427.0000      427.0000     1275    0.00%
Elapsed time = 0.36 sec. (278.57 ticks, tree = 0.01 MB, solutions = 2)
Version identifier: 22.1.1.0 | 2022-11-28 | 9160aff4d
CPXPARAM_Threads                                 8
CPXPARAM_Emphasis_MIP                            5
CPXPARAM_TimeLimit                               3600
CPXPARAM_MIP_Tolerances_MIPGap                   0.029999999999999999
Tried aggregator 3 times.
MIP Presolve eliminated 909 rows and 601 columns.
Aggregator did 167 substitutions.
Reduced MIP has 4052 rows, 3297 columns, and 15838 nonzeros.
Reduced MIP has 2931 binaries, 366 generals, 0 SOSs, and 0 indicators.
Presolve time = 0.02 sec. (14.80 ticks)
Probing fixed 185 vars, tightened 157 bounds.
Probing time = 0.04 sec. (8.76 ticks)
Tried aggregator 2 times.
Detecting symmetries...
MIP Presolve eliminated 236 rows and 190 columns.
Aggregator did 2 substitutions.
Reduced MIP has 3814 rows, 3105 columns, and 14841 nonzeros.
Reduced MIP has 2739 binaries, 366 generals, 0 SOSs, and 0 indicators.
Presolve time = 0.02 sec. (14.29 ticks)
Probing time = 0.02 sec. (3.63 ticks)
Clique table members: 10342.
MIP emphasis: heuristic.
MIP search method: dynamic search.
Parallel mode: deterministic, using up to 8 threads.
Root relaxation solution time = 0.11 sec. (102.36 ticks)

        Nodes                                         Cuts/
   Node  Left     Objective  IInf  Best Integer    Best Bound    ItCnt     Gap

      0     0      450.0000    47                    450.0000     2083         
*     0+    0                          450.0000      450.0000             0.00%
      0     0        cutoff            450.0000      450.0000     2083    0.00%
Elapsed time = 0.31 sec. (254.07 ticks, tree = 0.01 MB, solutions = 1)

Root node processing (before b&c):
  Real time             =    0.31 sec. (254.20 ticks)
Parallel b&c, 8 threads:
  Real time             =    0.00 sec. (0.00 ticks)
  Sync time (average)   =    0.00 sec.
  Wait time (average)   =    0.00 sec.
                          ------------
Total (root+branch&cut) =    0.31 sec. (254.20 ticks)

Root node processing (before b&c):
  Real time             =    0.36 sec. (278.70 ticks)
Parallel b&c, 8 threads:
  Real time             =    0.00 sec. (0.00 ticks)
  Sync time (average)   =    0.00 sec.
  Wait time (average)   =    0.00 sec.
                          ------------
Total (root+branch&cut) =    0.36 sec. (278.70 ticks)

Zero-half cuts applied:  9
Lift and project cuts applied:  1
Gomory fractional cuts applied:  1

Root node processing (before b&c):
  Real time             =    0.39 sec. (326.11 ticks)
Parallel b&c, 8 threads:
  Real time             =    0.00 sec. (0.00 ticks)
  Sync time (average)   =    0.00 sec.
  Wait time (average)   =    0.00 sec.
                          ------------
Total (root+branch&cut) =    0.39 sec. (326.11 ticks)

Zero-half cuts applied:  7
Gomory fractional cuts applied:  5

Root node processing (before b&c):
  Real time             =    0.39 sec. (349.23 ticks)
Parallel b&c, 8 threads:
  Real time             =    0.00 sec. (0.00 ticks)
  Sync time (average)   =    0.00 sec.
  Wait time (average)   =    0.00 sec.
                          ------------
Total (root+branch&cut) =    0.39 sec. (349.23 ticks)

Zero-half cuts applied:  7
Lift and project cuts applied:  1
Gomory fractional cuts applied:  1

Root node processing (before b&c):
  Real time             =    0.27 sec. (214.56 ticks)
Parallel b&c, 8 threads:
  Real time             =    0.00 sec. (0.00 ticks)
  Sync time (average)   =    0.00 sec.
  Wait time (average)   =    0.00 sec.
                          ------------
Total (root+branch&cut) =    0.27 sec. (214.56 ticks)

Root node processing (before b&c):
  Real time             =    0.14 sec. (108.80 ticks)
Parallel b&c, 8 threads:
  Real time             =    0.00 sec. (0.00 ticks)
  Sync time (average)   =    0.00 sec.
  Wait time (average)   =    0.00 sec.
                          ------------
Total (root+branch&cut) =    0.14 sec. (108.80 ticks)

Root node processing (before b&c):
  Real time             =    0.04 sec. (34.03 ticks)
Parallel b&c, 8 threads:
  Real time             =    0.00 sec. (0.00 ticks)
  Sync time (average)   =    0.00 sec.
  Wait time (average)   =    0.00 sec.
                          ------------
Total (root+branch&cut) =    0.04 sec. (34.03 ticks)
